p cnf 16 118
1 2 3 4 0
5 6 7 8 0
9 10 11 12 0
13 14 15 16 0
-1 -5 0
-2 -6 0
-3 -7 0
-4 -8 0
-1 -9 0
-2 -10 0
-3 -11 0
-4 -12 0
-1 -13 0
-2 -14 0
-3 -15 0
-4 -16 0
-5 -1 0
-6 -2 0
-7 -3 0
-8 -4 0
-5 -9 0
-6 -10 0
-7 -11 0
-8 -12 0
-5 -13 0
-6 -14 0
-7 -15 0
-8 -16 0
-9 -1 0
-10 -2 0
-11 -3 0
-12 -4 0
-9 -5 0
-10 -6 0
-11 -7 0
-12 -8 0
-9 -13 0
-10 -14 0
-11 -15 0
-12 -16 0
-13 -1 0
-14 -2 0
-15 -3 0
-16 -4 0
-13 -5 0
-14 -6 0
-15 -7 0
-16 -8 0
-13 -9 0
-14 -10 0
-15 -11 0
-16 -12 0
-1 -2 0
-5 -6 0
-9 -10 0
-13 -14 0
-1 -3 0
-5 -7 0
-9 -11 0
-13 -15 0
-1 -4 0
-5 -8 0
-9 -12 0
-13 -16 0
-2 -1 0
-6 -5 0
-10 -9 0
-14 -13 0
-2 -3 0
-6 -7 0
-10 -11 0
-14 -15 0
-2 -4 0
-6 -8 0
-10 -12 0
-14 -16 0
-3 -1 0
-7 -5 0
-11 -9 0
-15 -13 0
-3 -2 0
-7 -6 0
-11 -10 0
-15 -14 0
-3 -4 0
-7 -8 0
-11 -12 0
-15 -16 0
-4 -1 0
-8 -5 0
-12 -9 0
-16 -13 0
-4 -2 0
-8 -6 0
-12 -10 0
-16 -14 0
-4 -3 0
-8 -7 0
-12 -11 0
-16 -15 0
-1 -8 0
-2 -8 0
-3 -8 0
-4 -5 0
-4 -6 0
-4 -7 0
-1 -12 0
-2 -12 0
-3 -12 0
-4 -9 0
-4 -10 0
-4 -11 0
-5 -16 0
-6 -16 0
-7 -16 0
-8 -13 0
-8 -14 0
-8 -15 0
